22
14 17
14 10
14 21
14 0
14 6
14 11
14 1
14 7
14 8
14 20
17 10
17 12
17 18
17 4
17 7
17 16
17 9
17 19
17 8
10 18
10 4
10 1
10 20
10 15
10 7
10 2
10 9
0 20
0 7
0 4
0 1
0 11
0 18
0 5
0 16
0 3
20 9
20 5
20 16
20 12
20 2
20 8
20 19
7 12
7 3
7 6
7 21
7 11
7 16
12 3
12 1
12 8
12 13
12 9
12 6
12 15
18 19
18 3
18 2
18 6
18 4
18 15
18 16
19 4
19 9
19 13
19 8
19 11
19 5
19 3
3 11
3 16
3 4
3 13
3 8
6 2
6 13
6 4
6 15
6 5
6 21
4 5
4 15
4 11
2 8
2 13
2 1
2 9
2 21
2 15
5 11
5 21
5 1
5 16
5 15
11 21
11 9
11 13
8 21
8 9
8 16
21 1
21 15
21 16
1 15
1 9
1 13
15 13
13 16
13 9
